32	0

0	2	2	4
2	1	3
10	1	5
10	1	5
2	1	6
3	1	7
6	1	8
3	1	9
6	1	10
4	1	11
4	2	12	14
2	1	13
10	2	15	16
10	2	15	16
6	1	17
4	2	17	18
7	2	19	20
5	2	19	20
10	1	21
3	1	21
4	2	22	23
6	1	24
2	1	24
10	1	25
8	1	26
8	1	27
7	1	28
6	1	29
3	1	30
3	1	31
1	1	32
0	0
